* ENCODING=ISO-8859-1
NAME          CPLEX
ROWS
 N  obj1    
 G  c1      
 G  c2      
 G  c3      
 G  c4      
 G  c5      
 G  c6      
 G  c7      
 G  c8      
 G  c9      
 G  c10     
 G  c11     
 G  c12     
 G  c13     
 G  c14     
 G  c15     
 G  c16     
 G  c17     
 G  c18     
 G  c19     
 G  c20     
 G  c21     
 G  c22     
 G  c23     
 G  c24     
 G  c25     
 G  c26     
 G  c27     
 G  c28     
 G  c29     
 G  c30     
 G  c31     
 G  c32     
 G  c33     
 G  c34     
 G  c35     
 G  c36     
 G  c37     
 G  c38     
 G  c39     
 G  c40     
COLUMNS
    MARK0000  'MARKER'                 'INTORG'
    x1        obj1                            1
    x1        c14                           463
    x1        c18                           199
    x1        c26                           692
    x1        c31                           216
    x1        c32                           699
    x2        obj1                            1
    x2        c11                           353
    x2        c20                           562
    x2        c24                           619
    x2        c29                           392
    x2        c36                           773
    x3        obj1                            1
    x3        c11                           263
    x3        c26                           299
    x3        c30                           557
    x3        c34                           689
    x3        c35                           727
    x3        c36                           919
    x3        c37                           232
    x4        obj1                            1
    x4        c7                            355
    x4        c28                           236
    x5        obj1                            1
    x5        c1                            455
    x5        c5                            124
    x5        c31                           517
    x5        c38                           910
    x5        c39                           949
    x6        obj1                            1
    x6        c3                            789
    x6        c4                            822
    x6        c14                           554
    x6        c35                           392
    x6        c39                           974
    x7        obj1                            1
    x7        c4                            909
    x7        c6                            223
    x7        c22                           509
    x7        c27                           714
    x7        c29                           531
    x7        c39                           635
    x8        obj1                            1
    x8        c20                           344
    x8        c23                           141
    x8        c27                           521
    x9        obj1                            1
    x9        c2                            442
    x9        c9                            326
    x9        c15                           736
    x9        c17                           369
    x9        c23                           960
    x9        c24                           307
    x9        c26                           763
    x9        c34                           845
    x10       obj1                            1
    x10       c1                            549
    x10       c2                           1000
    x10       c13                           312
    x10       c14                           997
    x10       c28                           474
    x10       c40                           815
    x11       obj1                            1
    x11       c24                           664
    x11       c27                           325
    x12       obj1                            1
    x12       c14                           878
    x12       c29                           439
    x13       obj1                            1
    x13       c16                           374
    x13       c18                           169
    x13       c26                           739
    x13       c27                           142
    x13       c28                           836
    x13       c29                           325
    x13       c32                           365
    x14       obj1                            1
    x14       c13                           381
    x14       c23                           865
    x14       c31                           703
    x15       obj1                            1
    x15       c15                           513
    x15       c20                           852
    x15       c31                           990
    x16       obj1                            1
    x16       c4                            533
    x16       c6                            933
    x16       c23                           106
    x16       c33                           835
    x17       obj1                            1
    x17       c7                            270
    x17       c10                           496
    x17       c15                           770
    x17       c16                           484
    x17       c29                           943
    x18       obj1                            1
    x18       c24                           784
    x18       c40                           345
    x19       obj1                            1
    x19       c7                            356
    x19       c12                           741
    x19       c17                           448
    x19       c22                           364
    x19       c30                           722
    x20       obj1                            1
    x20       c13                           431
    x21       obj1                            1
    x21       c5                            193
    x21       c12                           384
    x21       c15                           145
    x21       c19                           269
    x21       c20                           871
    x21       c29                           547
    x21       c33                           338
    x22       obj1                            1
    x22       c23                           777
    x22       c27                           155
    x23       obj1                            1
    x23       c21                           169
    x23       c23                           842
    x23       c29                           686
    x23       c39                           697
    x24       obj1                            1
    x24       c8                            768
    x24       c33                           643
    x25       obj1                            1
    x25       c21                           499
    x25       c25                           875
    x25       c40                           786
    x26       obj1                            1
    x26       c6                            646
    x26       c14                           984
    x26       c15                           372
    x26       c17                           168
    x26       c38                           137
    x27       obj1                            1
    x27       c17                           678
    x27       c19                           195
    x27       c27                           191
    x27       c33                           355
    x27       c38                           552
    x28       obj1                            1
    x28       c16                           633
    x28       c18                           130
    x28       c25                           873
    x29       obj1                            1
    x29       c7                            320
    x29       c11                           884
    x29       c12                           545
    x29       c40                           175
    x30       obj1                            1
    x30       c12                           638
    x30       c29                           769
    x31       obj1                            1
    x31       c2                            265
    x31       c5                            679
    x31       c22                           816
    x32       obj1                            1
    x32       c1                            402
    x32       c7                            357
    x33       obj1                            1
    x33       c8                            430
    x33       c11                           138
    x33       c12                           732
    x33       c33                           747
    x34       obj1                            1
    x34       c1                            632
    x34       c6                            789
    x34       c9                            881
    x34       c24                           555
    x34       c33                           229
    x35       obj1                            1
    x35       c5                            149
    x35       c21                           308
    x35       c35                           878
    x35       c40                           799
    x36       obj1                            1
    x36       c23                           644
    x36       c32                           427
    x37       obj1                            1
    x37       c11                           656
    x37       c27                           118
    x37       c30                           507
    x38       obj1                            1
    x38       c7                            756
    x38       c27                           265
    x38       c37                           345
    x39       obj1                            1
    x39       c2                            876
    x39       c4                            720
    x39       c8                            964
    x39       c22                           239
    x40       obj1                            1
    x40       c30                           351
    x41       obj1                            1
    x41       c2                            820
    x41       c13                           131
    x42       obj1                            1
    x42       c2                            524
    x42       c9                            640
    x42       c33                           974
    x43       obj1                            1
    x43       c6                            101
    x43       c7                            617
    x43       c29                           829
    x43       c30                           117
    x44       obj1                            1
    x44       c12                           563
    x44       c26                           186
    x45       obj1                            1
    x45       c9                            459
    x45       c27                           698
    x45       c29                           387
    x45       c31                           146
    x46       obj1                            1
    x46       c40                           377
    x47       obj1                            1
    x47       c1                            339
    x47       c13                           255
    x47       c31                           754
    x47       c32                           255
    x47       c37                           779
    x48       obj1                            1
    x48       c5                            225
    x48       c20                           997
    x48       c23                           820
    x48       c32                           261
    x48       c35                           495
    x49       obj1                            1
    x49       c2                            869
    x49       c12                           146
    x49       c32                           402
    x49       c36                           221
    x49       c37                           491
    x50       obj1                            1
    x50       c1                            835
    x50       c2                            420
    x50       c4                            725
    x50       c14                           706
    x50       c16                           654
    x50       c20                           748
    x51       obj1                            1
    x51       c1                            113
    x51       c3                            586
    x51       c13                           882
    x51       c17                           784
    x52       obj1                            1
    x52       c22                           466
    x52       c32                           763
    x53       obj1                            1
    x53       c7                            688
    x53       c39                           314
    x54       obj1                            1
    x54       c12                           746
    x54       c16                           870
    x54       c17                           130
    x54       c21                           284
    x54       c23                           797
    x54       c26                           940
    x54       c28                           935
    x54       c31                           255
    x54       c33                           980
    x54       c40                           251
    x55       obj1                            1
    x55       c10                           201
    x55       c14                           950
    x55       c22                           416
    x55       c36                           894
    x55       c38                           116
    x56       obj1                            1
    x56       c5                            518
    x56       c21                           279
    x56       c24                           510
    x56       c25                           885
    x56       c37                           192
    x57       obj1                            1
    x57       c12                           567
    x57       c20                           244
    x58       obj1                            1
    x58       c11                           924
    x58       c32                           274
    x58       c36                           899
    x59       obj1                            1
    x59       c1                            492
    x59       c12                           344
    x59       c19                           999
    x59       c24                           761
    x59       c39                           615
    x60       obj1                            1
    x60       c9                            407
    x60       c20                           429
    x60       c23                           105
    x60       c25                           872
    x60       c31                           964
    x60       c35                           643
    x60       c40                           696
    x61       obj1                            1
    x61       c4                            826
    x61       c7                            943
    x61       c8                            754
    x61       c11                           506
    x61       c15                           900
    x61       c29                           740
    x61       c36                           407
    x61       c40                           773
    x62       obj1                            1
    x62       c8                            974
    x62       c35                           571
    x63       obj1                            1
    x63       c3                            118
    x63       c7                            328
    x63       c8                            637
    x63       c17                           455
    x63       c20                           411
    x63       c22                           690
    x63       c35                           193
    x64       obj1                            1
    x64       c1                            366
    x64       c13                           656
    x64       c16                           811
    x64       c36                           852
    x65       obj1                            1
    x65       c10                           894
    x65       c28                           112
    x65       c29                           270
    x65       c39                           621
    x66       obj1                            1
    x66       c8                            402
    x66       c12                           794
    x66       c20                           657
    x66       c21                           570
    x66       c24                           915
    x66       c30                           137
    x66       c35                           181
    x67       obj1                            1
    x67       c1                            771
    x67       c3                           1000
    x67       c17                           398
    x67       c34                           218
    x68       obj1                            1
    x68       c21                           148
    x69       obj1                            1
    x69       c24                           232
    x70       obj1                            1
    x70       c5                            813
    x70       c18                           175
    x70       c31                           596
    x71       obj1                            1
    x71       c1                            227
    x71       c10                           883
    x71       c31                           650
    x71       c36                           188
    x72       obj1                            1
    x72       c33                           102
    x73       obj1                            1
    x73       c14                           187
    x73       c31                           889
    x74       obj1                            1
    x74       c4                            412
    x74       c21                           487
    x75       obj1                            1
    x76       obj1                            1
    x76       c16                           847
    x76       c25                           223
    x76       c30                           520
    x76       c31                           170
    x76       c40                           489
    x77       obj1                            1
    x77       c1                            138
    x77       c22                           502
    x77       c24                           464
    x77       c26                           705
    x78       obj1                            1
    x78       c2                            302
    x78       c7                            322
    x78       c19                           232
    x78       c27                           143
    x78       c30                           195
    x79       obj1                            1
    x79       c2                            359
    x79       c7                            398
    x79       c8                            776
    x79       c17                           511
    x79       c26                           670
    x79       c34                           837
    x80       obj1                            1
    x80       c6                            525
    x80       c11                           819
    x80       c21                           274
    x80       c23                           292
    x80       c36                           407
    x80       c38                           348
    MARK0001  'MARKER'                 'INTEND'
RHS
    rhs       c1                           2660
    rhs       c2                           2939
    rhs       c3                           1247
    rhs       c4                           2474
    rhs       c5                           1351
    rhs       c6                           1609
    rhs       c7                           2855
    rhs       c8                           2853
    rhs       c9                           1357
    rhs       c10                          1237
    rhs       c11                          2272
    rhs       c12                          3100
    rhs       c13                          1524
    rhs       c14                          2860
    rhs       c15                          1718
    rhs       c16                          2337
    rhs       c17                          1971
    rhs       c18                           337
    rhs       c19                           848
    rhs       c20                          3058
    rhs       c21                          1509
    rhs       c22                          2001
    rhs       c23                          3175
    rhs       c24                          2906
    rhs       c25                          1864
    rhs       c26                          2497
    rhs       c27                          1636
    rhs       c28                          1297
    rhs       c29                          3429
    rhs       c30                          1553
    rhs       c31                          3425
    rhs       c32                          1723
    rhs       c33                          2602
    rhs       c34                          1295
    rhs       c35                          2040
    rhs       c36                          2780
    rhs       c37                          1020
    rhs       c38                          1032
    rhs       c39                          2403
    rhs       c40                          2753
BOUNDS
 LI bnd       x1        0
 LI bnd       x2        0
 LI bnd       x3        0
 LI bnd       x4        0
 LI bnd       x5        0
 LI bnd       x6        0
 LI bnd       x7        0
 LI bnd       x8        0
 LI bnd       x9        0
 LI bnd       x10       0
 LI bnd       x11       0
 LI bnd       x12       0
 LI bnd       x13       0
 LI bnd       x14       0
 LI bnd       x15       0
 LI bnd       x16       0
 LI bnd       x17       0
 LI bnd       x18       0
 LI bnd       x19       0
 LI bnd       x20       0
 LI bnd       x21       0
 LI bnd       x22       0
 LI bnd       x23       0
 LI bnd       x24       0
 LI bnd       x25       0
 LI bnd       x26       0
 LI bnd       x27       0
 LI bnd       x28       0
 LI bnd       x29       0
 LI bnd       x30       0
 LI bnd       x31       0
 LI bnd       x32       0
 LI bnd       x33       0
 LI bnd       x34       0
 LI bnd       x35       0
 LI bnd       x36       0
 LI bnd       x37       0
 LI bnd       x38       0
 LI bnd       x39       0
 LI bnd       x40       0
 LI bnd       x41       0
 LI bnd       x42       0
 LI bnd       x43       0
 LI bnd       x44       0
 LI bnd       x45       0
 LI bnd       x46       0
 LI bnd       x47       0
 LI bnd       x48       0
 LI bnd       x49       0
 LI bnd       x50       0
 LI bnd       x51       0
 LI bnd       x52       0
 LI bnd       x53       0
 LI bnd       x54       0
 LI bnd       x55       0
 LI bnd       x56       0
 LI bnd       x57       0
 LI bnd       x58       0
 LI bnd       x59       0
 LI bnd       x60       0
 LI bnd       x61       0
 LI bnd       x62       0
 LI bnd       x63       0
 LI bnd       x64       0
 LI bnd       x65       0
 LI bnd       x66       0
 LI bnd       x67       0
 LI bnd       x68       0
 LI bnd       x69       0
 LI bnd       x70       0
 LI bnd       x71       0
 LI bnd       x72       0
 LI bnd       x73       0
 LI bnd       x74       0
 LI bnd       x75       0
 LI bnd       x76       0
 LI bnd       x77       0
 LI bnd       x78       0
 LI bnd       x79       0
 LI bnd       x80       0
ENDATA
